%mem=200MB
%chk=FHF.chk
%nproc=1
#p  b3lyp/6-31+g(d,p)
iop(2/29=1) force


%mem=200MB
%chk=FHF.chk
%nproc=1
#p  pm6
iop(2/29=1) force

title

1 1
 O                0.000116   -0.000961   -0.386565   1  1  1
 H               -0.852163   -0.506364   -0.154508   1  1  1
 H               -0.011003    0.990547   -0.156979   1  1  1
 H                0.864723   -0.486579   -0.157400   1  1  1
 O                2.215230   -1.163198    0.109962   1  0  0
 O               -2.116563   -1.334184    0.110015   0  1  0
 O               -0.099071    2.498550    0.109641   0  0  1
 H                2.474453   -1.636585    0.912211   1  0  0
 H                2.805721   -1.444972   -0.602584   1  0  0
 H               -2.658992   -1.321437    0.910294   0  1  0   
 H               -2.652639   -1.706489   -0.603982   0  1  0
 H               -0.149496    3.150512   -0.603231   0  0  1
 H                0.181701    2.959711    0.911754   0  0  1

