%mem=200MB
%chk=FHF.chk
%nproc=1
#p  pm6
iop(2/29=1) force

title

1 1
O  0.0001160000  -0.0009610000  -0.3865650000
H  -0.8521630000  -0.5063640000  -0.1545080000
H  -0.0110030000  0.9905470000  -0.1569790000
H  0.8647230000  -0.4865790000  -0.1574000000
O  -2.1165630000  -1.3341840000  0.1100150000
H  -2.6589920000  -1.3214370000  0.9102940000
H  -2.6526390000  -1.7064890000  -0.6039820000


